(declare-const X String)
; M\x2Ezip.*w3who.*\x2Fcgi\x2Flogurl\.cgiMyPostdll\x3FHOST\x3A
(assert (str.in_re X (re.++ (str.to_re "M.zip") (re.* re.allchar) (str.to_re "w3who") (re.* re.allchar) (str.to_re "/cgi/logurl.cgiMyPostdll?HOST:\u{a}"))))
; ^100(\.0{0,2})? *%?$|^\d{1,2}(\.\d{1,2})? *%?$
(assert (str.in_re X (re.union (re.++ (str.to_re "100") (re.opt (re.++ (str.to_re ".") ((_ re.loop 0 2) (str.to_re "0")))) (re.* (str.to_re " ")) (re.opt (str.to_re "%"))) (re.++ ((_ re.loop 1 2) (re.range "0" "9")) (re.opt (re.++ (str.to_re ".") ((_ re.loop 1 2) (re.range "0" "9")))) (re.* (str.to_re " ")) (re.opt (str.to_re "%")) (str.to_re "\u{a}")))))
(check-sat)
